(set-logic ALL)
(set-option :produce-models true)
(declare-sort BoundSet 0)
(declare-sort UnboundSet 0)
(set-option :finite-model-find true)
(declare-fun IsInPicture (BoundSet BoundSet) Bool)
(declare-fun IsOutside (BoundSet) Bool)
(declare-fun IsInSnow (BoundSet) Bool)
(assert (not (=> (exists ((a BoundSet)) (exists ((b BoundSet)) (and (IsInPicture a b) (IsOutside a)))) (exists ((d BoundSet)) (and (IsOutside d) (IsInSnow d))))))
(check-sat)
(get-model)